
Gurobi 9.0.1 (linux64) logging started Thu Apr 30 09:39:19 2020

Gurobi Optimizer version 9.0.1 build v9.0.1rc0 (linux64)
Optimize a model with 3552 rows, 3890 columns and 43960 nonzeros
Model fingerprint: 0xd037d556
Variable types: 0 continuous, 3890 integer (3872 binary)
Coefficient statistics:
  Matrix range     [1e+00, 9e+00]
  Objective range  [3e+00, 1e+02]
  Bounds range     [1e+00, 1e+00]
  RHS range        [1e+00, 1e+00]

User MIP start produced solution with objective 671 (0.02s)
Loaded user MIP start with objective 671

Presolve removed 1343 rows and 979 columns
Presolve time: 4.40s
Presolved: 2209 rows, 2911 columns, 30248 nonzeros
Variable types: 0 continuous, 2911 integer (2911 binary)

Root relaxation: objective 4.376452e+02, 991 iterations, 0.08 seconds

    Nodes    |    Current Node    |     Objective Bounds      |     Work
 Expl Unexpl |  Obj  Depth IntInf | Incumbent    BestBd   Gap | It/Node Time

     0     0  437.64521    0  388  671.00000  437.64521  34.8%     -    4s
     0     0  467.15072    0  372  671.00000  467.15072  30.4%     -    5s
     0     0  467.27810    0  385  671.00000  467.27810  30.4%     -    5s
     0     0  471.74622    0  406  671.00000  471.74622  29.7%     -    5s
     0     0  471.81680    0  406  671.00000  471.81680  29.7%     -    5s
     0     0  480.12043    0  412  671.00000  480.12043  28.4%     -    6s
     0     0  480.44292    0  415  671.00000  480.44292  28.4%     -    6s
     0     0  480.59209    0  408  671.00000  480.59209  28.4%     -    6s
     0     0  483.95692    0  427  671.00000  483.95692  27.9%     -    7s
     0     0  484.50784    0  442  671.00000  484.50784  27.8%     -    7s
     0     0  485.38848    0  455  671.00000  485.38848  27.7%     -    7s
     0     0  485.45184    0  448  671.00000  485.45184  27.7%     -    7s
     0     0  485.45623    0  455  671.00000  485.45623  27.7%     -    7s
     0     0  487.22115    0  451  671.00000  487.22115  27.4%     -    7s
     0     0  487.25788    0  455  671.00000  487.25788  27.4%     -    7s
     0     0  489.21585    0  424  671.00000  489.21585  27.1%     -    7s
     0     0  489.39587    0  434  671.00000  489.39587  27.1%     -    8s
     0     0  489.66171    0  439  671.00000  489.66171  27.0%     -    8s
     0     0  489.68548    0  441  671.00000  489.68548  27.0%     -    8s
     0     0  490.68151    0  457  671.00000  490.68151  26.9%     -    8s
     0     0  490.68305    0  453  671.00000  490.68305  26.9%     -    8s
     0     0  491.66932    0  463  671.00000  491.66932  26.7%     -    8s
     0     0  491.99678    0  440  671.00000  491.99678  26.7%     -    8s
     0     0  491.99689    0  444  671.00000  491.99689  26.7%     -    8s
     0     0  492.28492    0  468  671.00000  492.28492  26.6%     -    8s
     0     0  492.38301    0  478  671.00000  492.38301  26.6%     -    9s
     0     0  492.38301    0  482  671.00000  492.38301  26.6%     -    9s
     0     0  493.26768    0  456  671.00000  493.26768  26.5%     -    9s
     0     0  493.42590    0  452  671.00000  493.42590  26.5%     -    9s
     0     0  493.43217    0  456  671.00000  493.43217  26.5%     -    9s
     0     0  493.52440    0  467  671.00000  493.52440  26.4%     -    9s
     0     0  493.52440    0  444  671.00000  493.52440  26.4%     -    9s
H    0     0                     640.0000000  493.69193  22.9%     -   13s
     3     3  496.02943    2  241  640.00000  495.60996  22.6%  1892   16s
   314   221  524.18481   12  144  640.00000  499.77945  21.9%  66.7   20s
H  502   378                     634.0000000  502.56288  20.7%  45.9   21s
   648   466     cutoff   10       634.00000  510.91896  19.4%  54.8   25s
H  825   378                     611.0000000  552.53191  9.57%  48.9   26s
  1041   156  598.25000   48   52  611.00000  552.53191  9.57%  16.3   30s
  1348   355  567.27273   22  134  611.00000  553.67627  9.38%  23.3   35s
* 1471   342              87     608.0000000  553.67627  8.93%  29.3   39s
  1513   351     cutoff   45       608.00000  553.67627  8.93%  31.9   40s
* 1919   367              64     598.0000000  563.03448  5.85%  37.0   44s
* 1921   336              63     597.0000000  563.03448  5.69%  36.9   44s
  1993   331  575.15625   36  128  597.00000  564.71739  5.41%  37.8   45s
  2587   348  583.42593   40  103  597.00000  574.66667  3.74%  40.8   50s

Cutting planes:
  MIR: 10
  Flow cover: 6
  Zero half: 21

Explored 3396 nodes (182378 simplex iterations) in 54.40 seconds
Thread count was 1 (of 40 available processors)

Solution count 7: 597 598 608 ... 671

Optimal solution found (tolerance 1.00e-04)
Best objective 5.970000000000e+02, best bound 5.970000000000e+02, gap 0.0000%

User-callback calls 15166, time in user-callback 0.03 sec
